c --- [ banner ] -------------------------------------------------------------
c 
c CaDiCaL Radically Simplified CDCL SAT Solver
c Copyright (c) 2016-2021 A. Biere, M. Fleury, N. Froleyks
c 
c Version 1.5.2 a5f15211db36c3956764e18194dd5bd63bf3b5e6
c g++ (GCC) 9.3.0 -Wall -Wextra -O3 -DNDEBUG
c Fri Oct 21 01:27:37 EDT 2022 Linux gra-login3 3.10.0-1160.66.1.el7.x86_64 x86_64
c 
c --- [ limit ] --------------------------------------------------------------
c 
c setting conflict limit to 200000 conflicts (due to '200000')
c 
c --- [ parsing input ] ------------------------------------------------------
c 
c reading DIMACS file from '33.cubes3073.adj'
c opening file to read '33.cubes3073.adj'
c found 'p cnf 6160 1595480' header
c parsed 1595480 clauses in 19.29 seconds process time
c closing file '33.cubes3073.adj'
c after reading 1457566810 bytes 1390.0 MB
c 
c --- [ options ] ------------------------------------------------------------
c 
c all options are set to their default value
c 
c --- [ solving ] ------------------------------------------------------------
c 
c time measured in process time since initialization
c 
c  seconds    reductions  redundant   irredundant
c          MB     restarts       trail       variables
c            level   conflicts       glue         remaining
c 
c * 19.29 1388  0 0   0    0    0  0% 0 1595422 2299 37%
c { 20.56 1448  0 0   0    0    0  0% 0 1595422 2299 37%
c i 21.64 1476 560 0   0   31   28 30% 3 1595422 2298 37%
c i 21.65 1476 531 0   0   33   28 29% 3 1595422 2294 37%
c i 22.67 1491 353 0   6   63   51 30% 6 1595422 2291 37%
c i 25.04 1514 209 0  23  137  115 29% 22 1595422 2290 37%
c i 28.32 1529 138 0  51  292  241 28% 28 1595422 2289 37%
c i 28.35 1529 137 0  52  295  243 28% 27 1595422 2288 37%
c i 28.37 1530 136 0  52  297  244 28% 27 1595422 2287 37%
c - 32.27 1520 136 1  52  301  248 28% 27 435505 2287 37%
c i 33.93 1470 96 1  71  537  413 29% 28 435505 2281 37%
c i 34.28 1470 93 1  74  593  461 29% 28 435505 2280 37%
c i 34.40 1470 94 1  75  600  467 29% 28 435505 2279 37%
c i 34.80 1471 79 1  82  754  585 30% 25 435505 2278 37%
c i 34.80 1471 78 1  82  767  594 30% 25 435505 2277 37%
c } 34.89 1471 64 1  82 1003  768 30% 22 435505 2277 37%
c [ 34.89 1471  0 1  82 1003  768  0% 0 435505 2277 37%
c O 34.89 1471  1 1  82 1004  769 12% 1 435505 2277 37%
c - 36.75 1553 26 2  82 1284  876 30% 21 355822 2277 37%
c i 36.90 1519 25 2  82 1393  941 30% 21 355822 2276 37%
c 
c  seconds    reductions  redundant   irredundant
c          MB     restarts       trail       variables
c            level   conflicts       glue         remaining
c 
c i 37.24 1518 26 2  82 1855 1203 30% 22 355822 2275 37%
c i 37.27 1518 26 2  82 1878 1215 30% 22 355822 2274 37%
c - 38.42 1517 27 3  83 2680 1256 30% 22 355813 2274 37%
c ] 39.16 1517 26 3  83 3006 1444 48% 22 355813 2274 37%
c { 39.16 1517 64 3  83 3006 1444 81% 22 355813 2274 37%
c F 39.27 1517 64 3  83 3007 1445 81% 22 355813 2274 37%
c i 39.35 1517 63 3  83 3012 1449 81% 22 355813 2273 37%
c i 39.42 1517 63 3  83 3018 1454 81% 22 355813 2272 37%
c i 40.44 1517 57 3  90 3335 1706 72% 21 355813 2271 37%
c i 41.02 1517 59 3 101 3382 1749 71% 22 355813 2264 37%
c i 42.35 1517 54 3 120 3694 1985 67% 20 355813 2253 37%
c i 42.71 1517 53 3 122 3771 2046 66% 20 355813 2252 37%
c i 42.97 1517 53 3 126 3805 2079 65% 21 355813 2251 37%
c i 44.79 1517 58 3 189 4076 2316 63% 24 355813 2250 37%
c i 44.83 1517 58 3 189 4109 2339 63% 24 355813 2249 37%
c i 44.91 1517 57 3 189 4133 2360 62% 24 355813 2248 36%
c i 45.07 1517 56 3 190 4207 2419 62% 24 355813 2247 36%
c i 45.17 1517 56 3 192 4243 2450 61% 24 355813 2246 36%
c - 48.06 1511 57 4 250 4541 2049 59% 25 355549 2246 36%
c i 48.77 1511 58 4 276 4652 2137 59% 25 355549 2245 36%
c 
c  seconds    reductions  redundant   irredundant
c          MB     restarts       trail       variables
c            level   conflicts       glue         remaining
c 
c 2 50.72 1511 55 4 308 5002 3666 58% 25 355536 2235 36%
c p 59.39 1511 55 4 308 5002 7153 58% 25 355536 2179 35%
c d 60.04 1511 55 4 308 5002 7071 58% 25 355353 2175 35%
c # 60.94 1511 46 4 308 6008 7701 56% 23 355353 2175 35%
c - 64.33 1497 43 5 344 6869 3037 55% 22 355353 2175 35%
c } 65.59 1497 45 5 378 7006 3159 54% 23 355353 2175 35%
c [ 65.59 1497 26 5 378 7006 3159 48% 22 355353 2175 35%
c - 68.04 1353 102 6 380 9664 3831 49% 79 355353 2175 35%
c I 68.26 1353 106 6 380 10011 4112 49% 82 355353 2175 35%
c ] 68.94 1353 111 6 381 10660 4593 49% 86 355353 2175 35%
c 1 68.94 1353 111 6 381 10660 4593 49% 86 355353 2175 35%
c 
c --- [ writing output ] -----------------------------------------------------
c 
c writing simplified CNF to DIMACS file 'simp/33.cubes3073.adj.simp1'
c * 68.94 1353 111 6 381 10660 4593 49% 86 355353 2175 35%
c opening file to write 'simp/33.cubes3073.adj.simp1'
c writing 'p cnf 6160 355353' header
c closing file 'simp/33.cubes3073.adj.simp1'
c after writing 168945953 bytes 161.1 MB
c wrote 355353 clauses in 1.19 seconds process time
c 
c --- [ writing extension ] --------------------------------------------------
c 
c writing extension stack to 'simp/33.cubes3073.adj.ext1'
c opening file to write 'simp/33.cubes3073.adj.ext1'
c closing file 'simp/33.cubes3073.adj.ext1'
c after writing 12691 bytes 0.0 MB
c wrote 850 witnesses in 0.00 seconds process time
c 
c --- [ result ] -------------------------------------------------------------
c 
s SATISFIABLE
c 
c --- [ run-time profiling ] -------------------------------------------------
c 
c process time taken by individual solving procedures
c (percentage relative to process time for solving)
c 
c        39.70   79.97% search
c        30.82   62.07% unstable
c        19.29   38.85% parse
c         9.95   20.03% simplify
c         8.67   17.46% probe
c         7.61   15.33% stable
c         1.27    2.56% lucky
c         0.05    0.11% ternary
c   =================================
c        49.65   70.80% solve
c 
c last line shows process time for solving
c (percentage relative to total process time)
c 
c --- [ statistics ] ---------------------------------------------------------
c 
c chronological:              2492        23.38 %  of conflicts
c conflicts:                 10660       214.71    per second
c decisions:                 44562       897.55    per second
c fixed:                       832        13.51 %  of all variables
c learned:                   10359        97.18 %  per conflict
c learned_lits:            1859712       100.00 %  learned literals
c minimized:                     0         0.00 %  learned literals
c shrunken:                 800019        43.02 %  learned literals
c minishrunken:             162607         8.74 %  learned literals
c propagations:            1699780         0.03 M  per second
c reduced:                    3480        32.65 %  per conflict
c rephased:                      4      2665.00    interval
c restarts:                    381        27.98    interval
c stabilizing:                   2        53.07 %  of conflicts
c substituted:                   9         0.15 %  of all variables
c subsumed:                   2325         0.07 %  of all clauses
c ternary:                    1258         0.63 %  of resolved
c weakened:                     18         2.00    average size
c 
c seconds are measured in process time for solving
c 
c --- [ resources ] ----------------------------------------------------------
c 
c total process time since initialization:        70.13    seconds
c total real time since initialization:           70.21    seconds
c maximum resident set size of process:         1683.56    MB
c 
c --- [ shutting down ] ------------------------------------------------------
c 
c exit 10
WARNING! DIMACS header mismatch: wrong number of variables.
============================[ Problem Statistics ]=============================
|                                                                             |
|  Number of variables:          6120                                         |
|  Number of clauses:          355353                                         |
|  Parse time:                   2.35 s                                       |
|  Simplification time:          0.06 s                                       |
|                                                                             |
============================[ Search Statistics ]====================================================
| Conflicts |          ORIGINAL         |          LEARNT          | Num Sols |      SUBGRAPHS      |
|           |    Vars  Clauses Literals |    Limit  Clauses Lit/Cl |          | Canonical Noncanon. |
=====================================================================================================
|       101 |    6028   355354 36373930 |     2000      101     72 |        0 |        23         1 |
|       263 |    6028   355366 36374087 |     2000      263     90 |        0 |        32        13 |
|       577 |    6028   355455 36375374 |     2000      577     80 |        0 |        67       102 |
|       962 |    6028   355503 36376212 |     2000      962     81 |        0 |       102       150 |
|      1583 |    6028   355618 36378573 |     2000     1583     83 |        0 |       146       265 |
|      2359 |    6028   355635 36378921 |     3604     1363     52 |        0 |       169       282 |
|      3671 |    6028   355808 36381766 |     3604     2675     68 |        0 |       253       455 |
|      5642 |    6028   356071 36386608 |     5003     2845     46 |        0 |       350       718 |
|      8302 |    6028   356169 36388543 |     6303     3005     30 |        0 |       427       816 |
|     12951 |    6028   356974 36401280 |     7552     4503     41 |        0 |       658      1621 |
|     18955 |    6028   357212 36407522 |     8781     6736     54 |        0 |       743      1859 |
|     28245 |    6028   357853 36417955 |    11201     6646     37 |        0 |      1019      2500 |
|     41939 |    6028   358573 36431089 |    13609     8548     39 |        0 |      1271      3220 |
|     62510 |    6028   359683 36449425 |    16007    14917     59 |        0 |      1722      4330 |
|     93317 |    6028   361298 36475435 |    20821    10138     20 |        1 |      2364      5944 |
|    138607 |    6028   362799 36499665 |    24413    22420     60 |        1 |      2842      7445 |
|    206157 |    6028   364665 36528482 |    30413    22970     50 |        1 |      3621      9311 |
|    307837 |    6028   367819 36585229 |    37612    24449     39 |        1 |      4532     12465 |
|    457685 |    6028   369878 36621866 |    46025    30110     38 |        1 |      5201     14524 |
|    682154 |    6028   372664 36673483 |    55608    53762     59 |        1 |      6236     17310 |
|   1018068 |    6028   376053 36739972 |    68818    50886     43 |        1 |      7710     20699 |
|   1527260 |    6004   347618 33492731 |    84398    66058     55 |        1 |     10664     31103 |
|   2301565 |    6004   373741 33956139 |   103632    93197     59 |        4 |     16735     57223 |
|   3431652 |    5985   291032 26727911 |   117919    63571     46 |        5 |     18773     65035 |
=====================================================================================================
Number of solutions   : 5
Canonical subgraphs   : 19150          (6 /sec)
          order  3    : 1              (166667 /sec)
          order  4    : 1              (500000 /sec)
          order  5    : 1              (250000 /sec)
          order  6    : 1              (55556 /sec)
          order  7    : 1              (8772 /sec)
          order  8    : 2              (1361 /sec)
          order  9    : 4              (240 /sec)
          order 10    : 13             (60 /sec)
          order 11    : 55             (18 /sec)
          order 12    : 349            (6 /sec)
          order 13    : 4258           (6 /sec)
          order 14    : 4262           (5 /sec)
          order 15    : 5015           (6 /sec)
          order 16    : 4294           (8 /sec)
          order 17    : 551            (8 /sec)
          order 18    : 193            (8 /sec)
          order 19    : 94             (6 /sec)
          order 20    : 30             (7 /sec)
          order 21    : 20             (8 /sec)
          order 22    : 5              (1 /sec)
Noncanonical subgraphs: 66033          (353 /sec)
          order  3    : 0              (-nan /sec)
          order  4    : 0              (-nan /sec)
          order  5    : 0              (-nan /sec)
          order  6    : 0              (-nan /sec)
          order  7    : 0              (-nan /sec)
          order  8    : 0              (-nan /sec)
          order  9    : 0              (-nan /sec)
          order 10    : 0              (-nan /sec)
          order 11    : 0              (-nan /sec)
          order 12    : 0              (-nan /sec)
          order 13    : 8790           (7583 /sec)
          order 14    : 23790          (804 /sec)
          order 15    : 25718          (362 /sec)
          order 16    : 3451           (341 /sec)
          order 17    : 4193           (59 /sec)
          order 18    : 39             (56 /sec)
          order 19    : 35             (45 /sec)
          order 20    : 0              (-nan /sec)
          order 21    : 0              (-nan /sec)
Canonicity checking   : 3188.52 s
Noncanonicity checking: 187.139 s
Total canonicity time : 3375.66 s
database reductions   : 106
restarts              : 6142
conflicts             : 3588075        (731 /sec)
decisions             : 4707009        (0.00 % random) (960 /sec)
propagations          : 357327784      (72844 /sec)
conflict literals     : 353936471      (55.13 % deleted)
actual reward         : 0.123633
Memory used           : 475.00 MB
CPU time              : 4905.42 s

UNSATISFIABLE
